[1, 3, 2, 4, 5, 13, 7, 8, 5, 8, 12, 12, 16, 13, 15, 14, 16, 18, 17, 23, 20, 18, 25, 23, 24, 28, 26, 30, 29, 28, 31, 31, 37, 38, 37, 35, 36, 34, 35, 36, 47, 42, 43, 44, 45, 48, 47, 45, 49, 50, 51, 51, 53, 40, 51, 56, 57, 57, 41, 63, 60, 61, 62, 66, 65, 67, 68, 67, 69, 71, 70, 72, 73, 77, 75, 76, 75, 75, 79, 80, 80, 78, 80, 84, 77, 81, 84, 82, 76, 79, 80, 92, 103, 101, 97, 99, 100, 98, 93, 101, 102, 100, 102, 79, 86, 81, 108, 109, 113, 110, 108, 111, 112, 116, 111, 113, 118, 117, 120, 119, 123, 121, 123, 124, 127, 126, 124, 123, 127, 130, 132, 131, 137, 135, 136, 133, 134, 143, 139, 140, 138, 144, 145, 142, 141, 145, 147, 149, 148, 150, 151, 152, 152, 162, 157, 156, 171, 165, 163, 160, 161, 162, 163, 161, 163, 171, 169, 168, 167, 168, 167, 170, 173, 164, 179, 180, 181, 178, 177, 176, 175, 182, 183, 183, 185, 190, 187, 188, 188, 190, 191, 192, 193, 190, 193, 200, 196, 194, 198, 195, 202, 201, 203, 205, 204, 203, 207, 208, 209, 210, 211, 214, 215, 216, 213, 212, 218, 218, 227, 226, 232, 231, 230, 227, 225, 226, 233, 235, 229, 230, 231, 232, 233, 233, 236, 234, 227, 235, 234, 233, 244, 243, 241, 242, 247, 250, 245, 248, 249, 249, 254, 259, 256, 253, 258, 257, 258, 257, 259, 259, 265, 265, 267, 268, 265, 266, 267, 269, 268, 270, 272, 271, 274, 277, 276, 275, 273, 273, 253, 225]
[2, 3, 4, 4, 13, 14, 15, 15, 16, 17, 17, 23, 24, 28, 29, 34, 34, 40, 46, 46, 50, 50, 50, 52, 55, 59, 61, 64, 65, 67, 70, 77, 78, 78, 78, 81, 85, 96, 97, 98, 99, 99, 110, 110, 111, 112, 112, 115, 129, 130, 131, 132, 134, 135, 142, 144, 144, 146, 148, 155, 156, 168, 169, 172, 174, 176, 179, 182, 182, 187, 187, 189, 189, 189, 190, 192, 192, 194, 197, 199, 200, 201, 203, 204, 206, 208, 209, 210, 211, 212, 213, 214, 215, 217, 217, 225, 225, 230, 230, 231, 231, 233, 233, 235, 240, 241, 246, 247, 248, 248, 256, 256, 267, 267, 271, 272, 272, 276, 291, 291, 295, 302, 304, 308, 312, 315, 315, 316, 320, 321, 325, 325, 327, 328, 335, 335, 339, 341, 343, 344, 345, 345, 346, 347, 349, 350, 351, 359, 359, 362, 362, 364, 370, 371, 386, 386, 387, 388, 390, 391, 391, 395, 396, 398, 401, 401, 401, 404, 409, 410, 411, 412, 414, 415, 416, 417, 419, 420, 421, 425, 426, 427, 428, 429, 438, 439, 439, 442, 446, 446, 448, 455, 456, 458, 459, 461, 461, 470, 471, 471, 473, 476, 478, 481, 481, 483, 485, 486, 490, 492, 493, 496, 496, 508, 508, 509, 509, 514, 519, 521, 522, 525, 526, 527, 527, 528, 532, 534, 547, 560, 565, 565, 571, 573, 573, 575, 575, 577, 581, 588, 588, 591, 594, 594, 597, 598, 605, 610, 617, 618, 619, 624, 624, 625, 626, 627, 633, 633, 639, 649, 654, 655, 658, 658, 667, 669, 673, 675, 676, 678, 681, 681, 688, 689, 692, 693, 695, 696, 698, 700, 704, 705, 706, 708, 709, 709, 718, 718, 724, 724, 726, 727, 728, 728, 734, 735, 736, 737, 738, 744, 748, 749, 750, 750, 753, 759, 761, 762, 765, 767, 770, 775, 775, 784, 784, 784, 787, 787, 789, 789, 790, 790, 790, 790, 799, 804, 807, 816, 816, 816, 824, 824, 828, 832, 833, 838, 839, 848, 848, 849, 849, 850, 856, 859, 859, 862, 864, 864, 865, 866, 870, 872, 872, 874, 876, 879, 880, 884, 886, 892, 893, 893, 903, 903, 905, 906, 909, 913, 913, 918, 922, 933, 934, 939, 945, 947, 947, 948, 952, 957, 962, 966, 970, 973, 975, 976, 978, 980, 984, 985, 988, 988, 996, 1000, 1001, 1009, 1011, 1013, 1015, 1016, 1017, 1023, 1024, 1024, 1028, 1038, 1039, 1039, 1047, 1048, 1050, 1061, 1061, 1067, 1067, 1068, 1068, 1069, 1069, 1069, 1069, 1071, 1071, 1072, 1080, 1081, 1084, 1093, 1093, 1095, 1095, 1095, 1101, 1101, 1101, 1105, 1106, 1107, 1112, 1113, 1118, 1119, 1120, 1120, 1123, 1123, 1127, 1127, 1129, 1130, 1135, 1140, 1141, 1143, 1143, 1144, 1146, 1146, 1153, 1155, 1156, 1157, 1158, 1159, 1162, 1162, 1164, 1165, 1168, 1171, 1177, 1178, 1187, 1190, 1190, 1190, 1191, 1191, 1192, 1192, 1193, 1197, 1201, 1213, 1218, 1223, 1223, 1224, 1225, 1227, 1228, 1228, 1232, 1234, 1236, 1241, 1245, 1249, 1252, 1254, 1255, 1257, 1258, 1259, 1263, 1264, 1275, 1277, 1277, 1278, 1278, 1278, 1279, 1280, 1283, 1283, 1284, 1288, 1290, 1292, 1293, 1297, 1300, 1302, 1307, 1309, 1310, 1316, 1325, 1326, 1329, 1330, 1331, 1340, 1340, 1341, 1341, 1350, 1350, 1360, 1363, 1365, 1368, 1368, 1369, 1371, 1373, 1373, 1384, 1389, 1390, 1391]
